files/upTests/tupley14/0001.eprime
language ESSENCE' 1.0

find pain_tuple1_tuple1: matrix indexed by [int(1..2)] of int(1, 2)
find pain_tuple1_tuple2: matrix indexed by [int(1..2)] of int(4, 5)
find pain_tuple2_SetExplicit:
        matrix indexed by [int(1..2), int(1..1)] of int(8, 9)
such that
    pain_tuple2_SetExplicit[1, 1] = 8,
    pain_tuple2_SetExplicit[2, 1] = 9,
    pain_tuple1_tuple1[1] = 2,
    pain_tuple1_tuple1[2] = 1,
    pain_tuple1_tuple2[1] = 5,
    pain_tuple1_tuple2[2] = 4,
    8 = pain_tuple2_SetExplicit[1, 1],
    9 = pain_tuple2_SetExplicit[2, 1]
