files/upTests/tupley14/0001.eprime.solution
language ESSENCE' 1.0
$ minion Nodes: 1
$ minion TotalTime: 0.00054
$ Savile Row TotalTime: 0.213
letting pain_tuple1_tuple1 be [2, 1]
letting pain_tuple1_tuple2 be [5, 4]
letting pain_tuple2_Explicit be [[8], 
[9]]
